%nprocshared=2
%mem=1GB
%chk=1.chk
# opt=(calcfc,ts,maxcycle=500,maxstep=250,noeigen) freq 6-31++g(d,p) geom=connectivity m062x scf=(xqc,maxcycle=500)

Title Card Required

0 2
 C                  1.22287700    0.15509700   -0.00001200
 C                  0.21403100    1.12640700   -0.00000200
 C                 -1.11342800    0.73710000    0.00001100
 C                 -1.44835300   -0.62615500    0.00001500
 C                 -0.44305500   -1.59089000    0.00000600
 C                  0.89003700   -1.20176000   -0.00000800
 H                  0.47464400    2.18388700   -0.00000700
 H                 -0.73381000   -2.63583200    0.00001200
 H                  1.69002900   -1.93501800   -0.00001500
 C                  3.08081344    1.76133739   -0.00003419
 H                  2.77830557    2.83031704   -0.00003911
 H                 -3.30685500   -0.22045600    0.00006600
 O                  4.25257665    1.45643432   -0.00005315
 O                 -2.74396100   -1.00787600    0.00002700
 O                 -2.18592400    1.59030700    0.00002200
 H                 -1.89753400    2.50944800    0.00005100
 H                  2.70189998   -0.16599592   -0.01938538

 1 2 1.5 6 1.5 10 0.5
 2 3 2.0 7 1.0
 3 4 1.5 15 1.0
 4 5 1.5 14 1.0
 5 6 1.5 8 1.0
 6 9 1.0
 7
 8
 9
 10 11 1.0 13 2.0
 11
 12 14 1.0
 13
 14
 15 16 1.0
 16
 17

