%nprocshared=2
%mem=1GB
%chk=3.chk
# opt=(calcfc,ts,maxcycle=500,maxstep=250,noeigen) freq 6-31++g(d,p) geom=connectivity m062x scf=(xqc,maxcycle=500)

Title Card Required

0 2
 C                  1.34800900   -0.21570600   -0.00000400
 C                  0.11581046   -0.87255467   -0.19259731
 C                 -1.06244100   -0.16155400   -0.00000900
 C                 -1.03747100    1.32003400   -0.00000400
 C                  0.27822100    1.94768200   -0.00000100
 C                  1.42045000    1.20676000   -0.00000100
 H                  0.11642500   -1.97354200   -0.00001100
 H                  0.28789300    3.03257900    0.00000200
 H                  2.40430200    1.66539600    0.00000100
 C                  2.59319000   -1.01039100    0.00000500
 H                  2.45462900   -2.11069200    0.00004400
 O                  3.70347100   -0.52490700    0.00004900
 O                 -2.08629400    1.96982900   -0.00001000
 O                 -2.28275600   -0.68185900   -0.00001200
 C                 -3.35617609    0.10726258    0.49011922
 H                 -4.24575332   -0.51220512    0.39570823
 H                 -3.19472427    0.36819779    1.54135477
 H                 -3.31425082    2.07352887   -0.69154452

 1 2 1.5 6 1.5 10 1.0
 2 3 1.5 7 1.0
 3 4 1.0 14 1.5
 4 5 1.0 13 2.0
 5 6 2.0 8 1.0
 6 9 1.0
 7
 8
 9
 10 11 1.0 12 2.0
 11
 12
 13
 14 15 1.0
 15 16 1.0 17 1.0 18 0.5
 16
 17
 18

