%nprocshared=2
%mem=1GB
%chk=4.2.chk
# opt=(calcfc,ts,maxcycle=500,maxstep=250,noeigen) freq m062x/6-31++g(d,p) geom=connectivity scf=(xqc,maxcycle=500)

Title Card Required

0 2
 C                  1.43936800   -0.17234500    0.05497600
 C                  0.28826800   -0.94307600    0.24903900
 C                 -0.98261100   -0.35757300    0.26516000
 C                 -1.08749500    1.02965400    0.05249600
 C                  0.06106400    1.80654800   -0.15060700
 C                  1.31728200    1.21291400   -0.14872500
 H                  0.37696800   -2.01811700    0.38848600
 H                 -0.05922000    2.87246800   -0.31483100
 H                  2.21591000    1.80096700   -0.30595000
 C                  2.76718100   -0.82643000    0.06138400
 H                  2.74604800   -1.92589900    0.21877300
 O                  3.82662100   -0.24410400   -0.08940300
 O                 -2.32146900    1.64401900   -0.02180400
 O                 -2.38428900   -1.77343800   -0.84082200
 C                 -2.21778400   -1.24202800    0.42748900
 H                 -3.64128671   -0.23442236    0.91171097
 H                 -2.02217800   -2.01920600    1.18187400
 H                 -2.65452300    1.86261100    0.85930200

 1 2 1.5 6 1.5 10 1.0
 2 3 1.5 7 1.0
 3 4 1.5 15 1.0
 4 5 1.5 13 1.0
 5 6 1.5 8 1.0
 6 9 1.0
 7
 8
 9
 10 11 1.0 12 2.0
 11
 12
 13 18 1.0
 14 15 1.0
 15 16 0.5 17 1.0
 16
 17
 18

