%nprocshared=2
%mem=1GB
%chk=4.1.chk
# opt=(calcfc,ts,maxcycle=500,maxstep=250,noeigen) freq m062x/6-31++g(d,p) geom=connectivity scf=(xqc,maxcycle=500)

Title Card Required

0 2
 C                 -1.40924100   -0.18419500   -0.01996400
 C                 -0.21578400   -0.92298400   -0.09932500
 C                  1.00309500   -0.25881500   -0.08181800
 C                  1.05236400    1.14698400   -0.00284700
 C                 -0.13715100    1.87902600    0.07118100
 C                 -1.35942900    1.21699100    0.06646900
 H                 -0.24793700   -2.00413200   -0.19511200
 H                 -0.07590000    2.96026300    0.13510900
 H                 -2.29155000    1.76892800    0.12525900
 C                 -2.69905600   -0.89947700   -0.04069300
 H                 -2.61653000   -2.00551400   -0.12053200
 O                 -3.79563000   -0.36871800    0.02268000
 O                  2.23946200    1.80185700    0.00271100
 O                  3.19127799   -1.38257674   -0.36981802
 C                  1.57664707   -1.03951995   -1.29034995
 H                  2.41724629   -1.39208992   -1.87154923
 H                  0.59747923   -1.50526418   -1.33722603
 H                  2.95691200    1.15091200   -0.05179100

 1 2 1.5 6 1.5 10 1.0
 2 3 1.5 7 1.0
 3 4 1.5 14 0.5 15 0.5
 4 5 1.5 13 1.0
 5 6 1.5 8 1.0
 6 9 1.0
 7
 8
 9
 10 11 1.0 12 2.0
 11
 12
 13 18 1.0
 14 15 1.0
 15 16 1.0 17 1.0
 16
 17
 18

