%nprocshared=2
%mem=1GB
%chk=1.chk
# opt=(calcfc,ts,maxcycle=500,maxstep=250,noeigen) freq b3lyp/6-31++g(d,p) geom=connectivity scf=(xqc,maxcycle=500) temperature=500

Title Card Required

0 2
 C                 -0.36177833   -1.94230280   -0.08404560
 C                  1.03338167   -1.94230280   -0.08404560
 C                  1.73091967   -0.73455180   -0.08404560
 C                  1.03326567    0.47395720   -0.08524460
 C                 -0.36155933    0.47387920   -0.08572360
 C                 -1.05916033   -0.73432680   -0.08472760
 H                  1.58288967   -2.89481580   -0.08273060
 H                 -0.91168133    1.42616020   -0.08667660
 H                 -2.15876433   -0.73414380   -0.08490760
 H                  2.70237809    1.53490223   -0.08464291
 O                  1.74880164    1.71206391   -0.08543593
 C                 -1.49680480   -3.90816487   -0.08293572
 O                 -2.67646285   -3.68896248   -0.10183560
 O                  3.16091914   -0.73469412   -0.08281700
 C                  3.87579509   -1.97318145   -0.08158833
 H                  4.15706992   -2.22363763   -1.08311525
 H                  4.75398551   -1.87749524    0.52217134
 H                  3.25123676   -2.74511141    0.31709829

 1 2 1.5 6 1.5 12 0.5
 2 3 1.5 7 1.0
 3 4 1.5 14 1.0
 4 5 1.5 11 1.0
 5 6 1.5 8 1.0
 6 9 1.0
 7
 8
 9
 10 11 1.0
 11
 12 13 2.0
 13
 14 15 1.0
 15 16 1.0 17 1.0 18 1.0
 16
 17
 18

