%chk=5SFA.chk
# opt freq m062x/6-31++g(d,p) geom=connectivity

Title Card Required

0 1
 C                 -1.05073631   -0.13249095   -0.00004302
 C                 -0.13656485    0.91035459   -0.00006838
 C                  1.23252254    0.68988817    0.00007699
 C                  1.67008206   -0.63410239    0.00005764
 C                  0.76881590   -1.69502139    0.00017099
 C                 -0.58284127   -1.44503699   -0.00003134
 H                 -0.49729847    1.92542471   -0.00005036
 H                  1.15675097   -2.69629796    0.00037200
 H                 -1.29035181   -2.25269717    0.00017040
 C                 -2.49926918    0.15191844   -0.00005034
 H                 -2.76140987    1.21552083    0.00015178
 C                  2.21870226    1.83595511    0.00007278
 H                  3.26061296    1.52313534    0.00019551
 H                  3.52927935   -0.19065881   -0.00066299
 O                 -3.35495215   -0.67767315   -0.00005270
 O                  2.97742723   -0.95911296   -0.00014914
 O                  1.92038174    2.98795548    0.00008048

 1 2 1.5 6 1.5 10 1.0
 2 3 1.5 7 1.0
 3 4 1.5 12 1.0
 4 5 1.5 16 1.0
 5 6 2.0 8 1.0
 6 9 1.0
 7
 8
 9
 10 11 1.0 15 2.0
 11
 12 13 1.0 17 2.0
 13
 14 16 1.0
 15
 16
 17

