%nprocshared=2
%mem=1GB
%chk=CO.chk
# opt freq m062x/6-31++g(d,p) geom=connectivity

Title Card Required

0 1
 C                 -1.04833337    0.04000191    0.00000000
 O                 -2.16833337    0.04001571    0.00000000

 1 2 3.0
 2

