%chk=ethane.chk
# opt freq m062x/6-31++g(d,p) geom=connectivity 

Title Card Required

0 1
 C                 -1.90126040   -0.18907563    0.00000000
 H                 -1.54460597   -1.19788563    0.00000000
 H                 -1.54458756    0.31532256    0.87365150
 H                 -1.54458756    0.31532256   -0.87365150
 C                 -3.44126040   -0.18905665    0.00000000
 H                 -3.79791432    0.81975351    0.00019557
 H                 -3.79793296   -0.69328600   -0.87374908
 H                 -3.79793347   -0.69362431    0.87355355

 1 2 1.0 3 1.0 4 1.0 5 1.0
 2
 3
 4
 5 6 1.0 7 1.0 8 1.0
 6
 7
 8

