%chk=formaldehyde.chk
# opt freq m062x/6-31++g(d,p) geom=connectivity

Title Card Required

0 1
 O                 -0.20547946   -0.31963470    0.00000000
 C                 -1.46387946   -0.31963470    0.00000000
 H                 -1.82054580    0.15397082    0.89072270
 H                 -1.82054631   -1.32782577   -0.03520681

 1 2 2.0
 2 3 1.0 4 1.0
 3
 4

