%chk=methane.chk
# opt freq m062x/6-31++g(d,p) geom=connectivity 

Title Card Required

0 1
 C                 -0.34663864    0.29411764    0.00000000
 H                  0.01001579   -0.71469236    0.00000000
 H                  0.01003420    0.79851583    0.87365150
 H                  0.01003420    0.79851583   -0.87365150
 H                 -1.41663864    0.29413083    0.00000000

 1 2 1.0 3 1.0 4 1.0 5 1.0
 2
 3
 4
 5

