%chk=hradical.chk
# opt freq m062x/6-31++g(d,p) geom=connectivity

Title Card Required

0 2
 H                 -0.83333337    0.00000000    0.00000000

 1

